nK = 933;
nT = 4;
nI = 7;
L = 29;
TT = 214;
np = 1;
nc = 3;
b = [30, 46, 25, 70, 63, 69, 67];
d = [88, 141, 78, 116, 138, 124, 150];
m = [2.5, 1.7, 1.4, 2.3, 1.3, 1, 1.8];
pt = [0.22, 0.35, 0.32, 0.22];
st = [12.54, 17.85, 15.04, 8.8];
arc = {<1, 0, 1, 1, 0, 0, 0, [1, 1, 1, 1]>, <2, 1, 2, 1, 0, 0, 0, [1, 1, 1, 1]>, <3, 2, 3, 1, 0, 0, 0, [1, 1, 1, 1]>, <4, 3, 4, 1, 0, 0, 0, [1, 1, 1, 1]>, <5, 4, 5, 1, 0, 0, 0, [1, 1, 1, 1]>, <6, 5, 6, 1, 0, 0, 0, [1, 1, 1, 1]>, <7, 6, 7, 1, 0, 0, 0, [1, 1, 1, 1]>, <8, 7, 8, 1, 0, 0, 0, [1, 1, 1, 1]>, <9, 8, 9, 1, 0, 0, 0, [1, 1, 1, 1]>, <10, 9, 10, 1, 0, 0, 0, [1, 1, 1, 1]>, <11, 10, 11, 1, 0, 0, 0, [1, 1, 1, 1]>, <12, 11, 12, 1, 0, 0, 0, [1, 1, 1, 1]>, <13, 12, 13, 1, 0, 0, 0, [1, 1, 1, 1]>, <14, 13, 14, 1, 0, 0, 0, [1, 1, 1, 1]>, <15, 14, 15, 1, 0, 0, 0, [1, 1, 1, 1]>, <16, 15, 16, 1, 0, 0, 0, [1, 1, 1, 1]>, <17, 16, 17, 1, 0, 0, 0, [1, 1, 1, 1]>, <18, 17, 18, 1, 0, 0, 0, [1, 1, 1, 1]>, <19, 18, 19, 1, 0, 0, 0, [1, 1, 1, 1]>, <20, 19, 20, 1, 0, 0, 0, [1, 1, 1, 1]>, <21, 20, 21, 1, 0, 0, 0, [1, 1, 1, 1]>, <22, 21, 22, 1, 0, 0, 0, [1, 1, 1, 1]>, <23, 22, 23, 1, 0, 0, 0, [1, 1, 1, 1]>, <24, 23, 24, 1, 0, 0, 0, [1, 1, 1, 1]>, <25, 24, 25, 1, 0, 0, 0, [1, 1, 1, 1]>, <26, 25, 26, 1, 0, 0, 0, [1, 1, 1, 1]>, <27, 26, 27, 1, 0, 0, 0, [1, 1, 1, 1]>, <28, 27, 28, 1, 0, 0, 0, [1, 1, 1, 1]>, <29, 28, 29, 1, 0, 0, 0, [1, 1, 1, 1]>, <30, 0, 14, 14, 1, 1, 0, [1, 0, 1, 1]>, <31, 1, 15, 14, 1, 1, 0, [1, 0, 1, 1]>, <32, 2, 16, 14, 1, 1, 0, [1, 0, 1, 1]>, <33, 3, 17, 14, 1, 1, 0, [1, 0, 1, 1]>, <34, 4, 18, 14, 1, 1, 0, [1, 0, 1, 1]>, <35, 5, 19, 14, 1, 1, 0, [1, 0, 1, 1]>, <36, 6, 20, 14, 1, 1, 0, [1, 0, 1, 1]>, <37, 7, 21, 14, 1, 1, 0, [1, 0, 1, 1]>, <38, 8, 22, 14, 1, 1, 0, [1, 0, 1, 1]>, <39, 9, 23, 14, 1, 1, 0, [1, 0, 1, 1]>, <40, 10, 24, 14, 1, 1, 0, [1, 0, 1, 1]>, <41, 11, 25, 14, 1, 1, 0, [1, 0, 1, 1]>, <42, 12, 26, 14, 1, 1, 0, [1, 0, 1, 1]>, <43, 13, 27, 14, 1, 1, 0, [1, 0, 1, 1]>, <44, 14, 28, 14, 1, 1, 0, [1, 0, 1, 1]>, <45, 15, 29, 14, 1, 1, 0, [1, 0, 1, 1]>, <46, 0, 14, 14, 2, 0, 0, [1, 1, 1, 0]>, <47, 1, 15, 14, 2, 0, 0, [1, 1, 1, 0]>, <48, 2, 16, 14, 2, 0, 0, [1, 1, 1, 0]>, <49, 3, 17, 14, 2, 0, 0, [1, 1, 1, 0]>, <50, 4, 18, 14, 2, 0, 0, [1, 1, 1, 0]>, <51, 5, 19, 14, 2, 0, 0, [1, 1, 1, 0]>, <52, 6, 20, 14, 2, 0, 0, [1, 1, 1, 0]>, <53, 7, 21, 14, 2, 0, 0, [1, 1, 1, 0]>, <54, 8, 22, 14, 2, 0, 0, [1, 1, 1, 0]>, <55, 9, 23, 14, 2, 0, 0, [1, 1, 1, 0]>, <56, 10, 24, 14, 2, 0, 0, [1, 1, 1, 0]>, <57, 11, 25, 14, 2, 0, 0, [1, 1, 1, 0]>, <58, 12, 26, 14, 2, 0, 0, [1, 1, 1, 0]>, <59, 13, 27, 14, 2, 0, 0, [1, 1, 1, 0]>, <60, 14, 28, 14, 2, 0, 0, [1, 1, 1, 0]>, <61, 15, 29, 14, 2, 0, 0, [1, 1, 1, 0]>, <62, 0, 16, 16, 3, 0, 1, [1, 0, 1, 1]>, <63, 1, 17, 16, 3, 0, 1, [1, 0, 1, 1]>, <64, 2, 18, 16, 3, 0, 1, [1, 0, 1, 1]>, <65, 3, 19, 16, 3, 0, 1, [1, 0, 1, 1]>, <66, 4, 20, 16, 3, 0, 1, [1, 0, 1, 1]>, <67, 5, 21, 16, 3, 0, 1, [1, 0, 1, 1]>, <68, 6, 22, 16, 3, 0, 1, [1, 0, 1, 1]>, <69, 7, 23, 16, 3, 0, 1, [1, 0, 1, 1]>, <70, 8, 24, 16, 3, 0, 1, [1, 0, 1, 1]>, <71, 9, 25, 16, 3, 0, 1, [1, 0, 1, 1]>, <72, 10, 26, 16, 3, 0, 1, [1, 0, 1, 1]>, <73, 11, 27, 16, 3, 0, 1, [1, 0, 1, 1]>, <74, 12, 28, 16, 3, 0, 1, [1, 0, 1, 1]>, <75, 13, 29, 16, 3, 0, 1, [1, 0, 1, 1]>, <76, 0, 15, 15, 4, 0, 0, [0, 1, 1, 1]>, <77, 1, 16, 15, 4, 0, 0, [0, 1, 1, 1]>, <78, 2, 17, 15, 4, 0, 0, [0, 1, 1, 1]>, <79, 3, 18, 15, 4, 0, 0, [0, 1, 1, 1]>, <80, 4, 19, 15, 4, 0, 0, [0, 1, 1, 1]>, <81, 5, 20, 15, 4, 0, 0, [0, 1, 1, 1]>, <82, 6, 21, 15, 4, 0, 0, [0, 1, 1, 1]>, <83, 7, 22, 15, 4, 0, 0, [0, 1, 1, 1]>, <84, 8, 23, 15, 4, 0, 0, [0, 1, 1, 1]>, <85, 9, 24, 15, 4, 0, 0, [0, 1, 1, 1]>, <86, 10, 25, 15, 4, 0, 0, [0, 1, 1, 1]>, <87, 11, 26, 15, 4, 0, 0, [0, 1, 1, 1]>, <88, 12, 27, 15, 4, 0, 0, [0, 1, 1, 1]>, <89, 13, 28, 15, 4, 0, 0, [0, 1, 1, 1]>, <90, 14, 29, 15, 4, 0, 0, [0, 1, 1, 1]>, <91, 0, 17, 17, 5, 0, 0, [1, 1, 0, 1]>, <92, 1, 18, 17, 5, 0, 0, [1, 1, 0, 1]>, <93, 2, 19, 17, 5, 0, 0, [1, 1, 0, 1]>, <94, 3, 20, 17, 5, 0, 0, [1, 1, 0, 1]>, <95, 4, 21, 17, 5, 0, 0, [1, 1, 0, 1]>, <96, 5, 22, 17, 5, 0, 0, [1, 1, 0, 1]>, <97, 6, 23, 17, 5, 0, 0, [1, 1, 0, 1]>, <98, 7, 24, 17, 5, 0, 0, [1, 1, 0, 1]>, <99, 8, 25, 17, 5, 0, 0, [1, 1, 0, 1]>, <100, 9, 26, 17, 5, 0, 0, [1, 1, 0, 1]>, <101, 10, 27, 17, 5, 0, 0, [1, 1, 0, 1]>, <102, 11, 28, 17, 5, 0, 0, [1, 1, 0, 1]>, <103, 12, 29, 17, 5, 0, 0, [1, 1, 0, 1]>, <104, 0, 14, 14, 6, 0, 0, [1, 0, 1, 1]>, <105, 1, 15, 14, 6, 0, 0, [1, 0, 1, 1]>, <106, 2, 16, 14, 6, 0, 0, [1, 0, 1, 1]>, <107, 3, 17, 14, 6, 0, 0, [1, 0, 1, 1]>, <108, 4, 18, 14, 6, 0, 0, [1, 0, 1, 1]>, <109, 5, 19, 14, 6, 0, 0, [1, 0, 1, 1]>, <110, 6, 20, 14, 6, 0, 0, [1, 0, 1, 1]>, <111, 7, 21, 14, 6, 0, 0, [1, 0, 1, 1]>, <112, 8, 22, 14, 6, 0, 0, [1, 0, 1, 1]>, <113, 9, 23, 14, 6, 0, 0, [1, 0, 1, 1]>, <114, 10, 24, 14, 6, 0, 0, [1, 0, 1, 1]>, <115, 11, 25, 14, 6, 0, 0, [1, 0, 1, 1]>, <116, 12, 26, 14, 6, 0, 0, [1, 0, 1, 1]>, <117, 13, 27, 14, 6, 0, 0, [1, 0, 1, 1]>, <118, 14, 28, 14, 6, 0, 0, [1, 0, 1, 1]>, <119, 15, 29, 14, 6, 0, 0, [1, 0, 1, 1]>, <120, 0, 15, 15, 7, 0, 1, [0, 1, 1, 1]>, <121, 1, 16, 15, 7, 0, 1, [0, 1, 1, 1]>, <122, 2, 17, 15, 7, 0, 1, [0, 1, 1, 1]>, <123, 3, 18, 15, 7, 0, 1, [0, 1, 1, 1]>, <124, 4, 19, 15, 7, 0, 1, [0, 1, 1, 1]>, <125, 5, 20, 15, 7, 0, 1, [0, 1, 1, 1]>, <126, 6, 21, 15, 7, 0, 1, [0, 1, 1, 1]>, <127, 7, 22, 15, 7, 0, 1, [0, 1, 1, 1]>, <128, 8, 23, 15, 7, 0, 1, [0, 1, 1, 1]>, <129, 9, 24, 15, 7, 0, 1, [0, 1, 1, 1]>, <130, 10, 25, 15, 7, 0, 1, [0, 1, 1, 1]>, <131, 11, 26, 15, 7, 0, 1, [0, 1, 1, 1]>, <132, 12, 27, 15, 7, 0, 1, [0, 1, 1, 1]>, <133, 13, 28, 15, 7, 0, 1, [0, 1, 1, 1]>, <134, 14, 29, 15, 7, 0, 1, [0, 1, 1, 1]>};
